100 100 100
50
74 95 19
66 70 2
92 86 75
4 12 14
35 42 35
84 66 13
82 71 77
87 100 22
94 77 34
5 82 67
83 68 47
95 39 79
47 38 43
81 28 74
74 85 31
78 75 34
79 73 13
94 37 87
68 91 3
93 78 34
4 70 69
91 100 43
83 86 15
92 94 25
95 76 12
97 83 13
76 92 11
74 74 48
17 41 32
86 77 49
89 89 10
87 51 88
81 87 41
71 84 4
84 89 42
82 66 7
70 81 26
100 74 24
94 80 21
68 81 40
87 100 24
46 8 18
71 70 37
96 30 80
79 67 17
86 86 10
75 83 27
56 97 53
37 21 14
87 52 53
